myproject/instances/20nodes/rnd6_20.tsp
NAME : rnd6_20.tsp
TYPE : TSP
DIMENSION : 20
EDGE_WEIGHT_TYPE : EUC_2D
NODE_COORD_SECTION
0 411 609
1 396 987
2 385 912
3 801 738
4 571 693
5 536 334
6 941 947
7 297 810
8 326 234
9 358 260
10 908 365
11 967 41
12 724 694
13 3 570
14 832 425
15 362 650
16 269 490
17 879 453
18 288 233
19 103 451
