myproject/instances/20nodes/rnd6_20.opt.tour
NAME : rnd6_20.tsp.tsp.optbc.tour
TYPE : TOUR
DIMENSION : 20
TOUR_SECTION
0
15
7
2
1
4
12
3
6
17
14
10
11
5
9
8
18
19
13
16
-1